33D32945 STP File, STP Format Version 1.0

SECTION Comment
Name "wrp3-11-10s"
Creator "Bernd Zey"
Problem "Stochastic Steiner Tree Problem"
# Stochastic Steiner tree problem instance, base file: wrp3-11.stp
# weight-scaling on, factor=0.010000 (for "big-M" edges)
# parameters:
# distribution=equal
# selectRootRandomly=0
# probabilityTerminal=33
# probabilityNonTerminal=5
# 2nd stage edge-costs in [1.1000c_e, 1.3000c_e]
END

SECTION Graph
Nodes 128
Edges 227
Scenarios 10
Root 126
E 1 3 1
E 1 116 114
E 1 117 12
E 2 34 53
E 2 117 1
E 3 4 12
E 3 5 1
E 3 115 114
E 4 6 1
E 4 117 1
E 5 6 12
E 5 114 114
E 7 95 7
E 7 100 1
E 7 102 1
E 7 106 6
E 8 106 5
E 8 111 1
E 9 100 6
E 9 106 1
E 10 102 6
E 10 106 1
E 10 109 4
E 10 111 5
E 11 103 1
E 11 108 5
E 12 108 6
E 12 113 1
E 13 96 14
E 13 103 5
E 13 108 1
E 13 113 6
E 14 108 1
E 15 20 7
E 15 69 1
E 15 72 1
E 15 76 6
E 16 76 5
E 16 82 1
E 17 69 6
E 17 76 1
E 18 72 6
E 18 76 1
E 18 82 5
E 19 54 7
E 19 57 1
E 19 58 1
E 19 60 5
E 20 60 6
E 20 64 1
E 20 66 1
E 21 57 5
E 21 60 1
E 21 64 6
E 22 58 5
E 22 60 1
E 22 65 6
E 22 66 6
E 23 52 1
E 23 56 6
E 24 56 5
E 24 59 1
E 24 74 18
E 25 51 8
E 25 52 6
E 25 56 1
E 25 59 5
E 26 56 1
E 26 75 23
E 27 38 2
E 28 29 2
E 28 42 1
E 29 43 1
E 29 45 1
E 30 36 28
E 30 37 7
E 30 39 1
E 30 41 5
E 31 40 1
E 31 44 5
E 32 35 1
E 33 36 5
E 33 41 28
E 35 36 7
E 35 37 28
E 37 38 1
E 38 39 7
E 39 40 2
E 39 42 5
E 40 43 5
E 41 42 1
E 42 43 2
E 43 44 1
E 44 45 1
E 45 46 27
E 46 47 1
E 46 49 6
E 47 48 1
E 47 50 6
E 48 51 6
E 48 52 8
E 49 50 1
E 49 53 5
E 50 51 1
E 50 54 5
E 51 55 5
E 53 54 1
E 53 57 7
E 54 55 1
E 55 58 7
E 55 59 8
E 58 61 6
E 59 63 7
E 61 62 1
E 61 65 5
E 62 63 1
E 62 67 5
E 63 68 5
E 64 69 7
E 65 67 1
E 65 70 6
E 66 70 6
E 66 72 7
E 67 68 1
E 67 71 6
E 68 73 6
E 70 71 1
E 70 77 7
E 71 73 1
E 71 78 7
E 72 77 6
E 73 74 1
E 73 79 7
E 74 75 1
E 74 80 7
E 75 81 7
E 77 78 1
E 77 87 18
E 78 79 1
E 78 89 18
E 79 80 1
E 79 91 18
E 80 81 1
E 81 103 30
E 82 83 7
E 83 84 1
E 83 86 5
E 84 85 1
E 84 88 5
E 85 87 4
E 85 90 5
E 86 88 1
E 86 93 6
E 87 89 1
E 87 92 5
E 88 90 1
E 88 95 6
E 89 91 1
E 89 94 5
E 90 92 4
E 90 97 6
E 91 96 5
E 91 103 14
E 92 94 1
E 92 98 6
E 93 95 1
E 93 100 7
E 94 96 1
E 94 99 6
E 95 97 1
E 96 101 6
E 97 98 4
E 97 102 7
E 98 99 1
E 98 104 7
E 99 101 1
E 99 105 7
E 101 107 7
E 101 113 14
E 102 104 4
E 104 105 1
E 104 109 6
E 105 107 1
E 105 110 6
E 107 112 6
E 109 110 1
E 109 114 5
E 110 112 1
E 110 115 5
E 111 114 4
E 112 116 5
E 114 115 1
E 115 116 1
E 1 118 1000
E 2 118 1000
E 3 119 1000
E 4 119 1000
E 5 120 1000
E 6 120 1000
E 7 121 1000
E 8 121 1000
E 9 121 1000
E 10 121 1000
E 11 122 1000
E 12 122 1000
E 13 122 1000
E 14 122 1000
E 15 123 1000
E 16 123 1000
E 17 123 1000
E 18 123 1000
E 19 124 1000
E 20 124 1000
E 21 124 1000
E 22 124 1000
E 23 125 1000
E 24 125 1000
E 25 125 1000
E 26 125 1000
E 27 126 1000
E 28 126 1000
E 29 126 1000
E 30 126 1000
E 31 126 1000
E 32 127 1000
E 33 127 1000
E 34 128 1000
END

SECTION StochasticProbabilities
SP 0.16370 0.10010 0.081900 0.072700 0.10000 0.12720 0.090900 0.11810 0.063600 0.081800
END

SECTION StochasticWeights
SE 2 2 2 2 2 2 2 2 2 2 
SE 133 133 129 136 146 144 146 146 143 138 
SE 15 14 14 14 14 14 14 14 14 14 
SE 65 61 59 62 68 65 59 66 59 68 
SE 2 2 2 2 2 2 2 2 2 2 
SE 14 15 14 14 15 14 14 15 14 15 
SE 2 2 2 2 2 2 2 2 2 2 
SE 145 147 141 137 131 134 146 144 147 147 
SE 2 2 2 2 2 2 2 2 2 2 
SE 2 2 2 2 2 2 2 2 2 2 
SE 14 14 15 14 15 14 14 15 15 14 
SE 136 147 145 148 140 142 146 138 131 132 
SE 9 8 8 8 8 8 9 9 9 9 
SE 2 2 2 2 2 2 2 2 2 2 
SE 2 2 2 2 2 2 2 2 2 2 
SE 7 7 7 7 7 7 7 7 7 7 
SE 6 6 6 6 6 6 6 6 6 6 
SE 2 2 2 2 2 2 2 2 2 2 
SE 7 7 7 7 7 7 7 7 7 7 
SE 2 2 2 2 2 2 2 2 2 2 
SE 7 7 7 7 7 7 7 7 7 7 
SE 2 2 2 2 2 2 2 2 2 2 
SE 5 5 5 5 5 5 5 5 5 5 
SE 6 6 6 6 6 6 6 6 6 6 
SE 2 2 2 2 2 2 2 2 2 2 
SE 6 6 6 6 6 6 6 6 6 6 
SE 7 7 7 7 7 7 7 7 7 7 
SE 2 2 2 2 2 2 2 2 2 2 
SE 18 18 18 16 17 16 16 16 18 16 
SE 6 6 6 6 6 6 6 6 6 6 
SE 2 2 2 2 2 2 2 2 2 2 
SE 7 7 7 7 7 7 7 7 7 7 
SE 2 2 2 2 2 2 2 2 2 2 
SE 8 8 8 9 8 8 9 8 9 8 
SE 2 2 2 2 2 2 2 2 2 2 
SE 2 2 2 2 2 2 2 2 2 2 
SE 7 7 7 7 7 7 7 7 7 7 
SE 6 6 6 6 6 6 6 6 6 6 
SE 2 2 2 2 2 2 2 2 2 2 
SE 7 7 7 7 7 7 7 7 7 7 
SE 2 2 2 2 2 2 2 2 2 2 
SE 7 7 7 7 7 7 7 7 7 7 
SE 2 2 2 2 2 2 2 2 2 2 
SE 6 6 6 6 6 6 6 6 6 6 
SE 8 8 9 9 9 9 8 8 9 8 
SE 2 2 2 2 2 2 2 2 2 2 
SE 2 2 2 2 2 2 2 2 2 2 
SE 6 6 6 6 6 6 6 6 6 6 
SE 7 7 7 7 7 7 7 7 7 7 
SE 2 2 2 2 2 2 2 2 2 2 
SE 2 2 2 2 2 2 2 2 2 2 
SE 6 6 6 6 6 6 6 6 6 6 
SE 2 2 2 2 2 2 2 2 2 2 
SE 7 7 7 7 7 7 7 7 7 7 
SE 6 6 6 6 6 6 6 6 6 6 
SE 2 2 2 2 2 2 2 2 2 2 
SE 7 7 7 7 7 7 7 7 7 7 
SE 7 7 7 7 7 7 7 7 7 7 
SE 2 2 2 2 2 2 2 2 2 2 
SE 7 7 7 7 7 7 7 7 7 7 
SE 6 6 6 6 6 6 6 6 6 6 
SE 2 2 2 2 2 2 2 2 2 2 
SE 20 20 20 23 20 20 23 21 22 20 
SE 9 9 9 9 9 10 10 9 10 9 
SE 7 7 7 7 7 7 7 7 7 7 
SE 2 2 2 2 2 2 2 2 2 2 
SE 6 6 6 6 6 6 6 6 6 6 
SE 2 2 2 2 2 2 2 2 2 2 
SE 26 26 26 28 26 27 26 28 28 29 
SE 3 3 3 3 3 3 3 3 3 3 
SE 3 3 3 3 3 3 3 3 3 3 
SE 2 2 2 2 2 2 2 2 2 2 
SE 2 2 2 2 2 2 2 2 2 2 
SE 2 2 2 2 2 2 2 2 2 2 
SE 36 34 31 36 32 32 31 34 31 32 
SE 8 9 8 9 9 9 9 9 9 8 
SE 2 2 2 2 2 2 2 2 2 2 
SE 6 6 6 6 6 6 6 6 6 6 
SE 2 2 2 2 2 2 2 2 2 2 
SE 6 6 6 6 6 6 6 6 6 6 
SE 2 2 2 2 2 2 2 2 2 2 
SE 6 6 6 6 6 6 6 6 6 6 
SE 35 33 31 31 33 34 35 36 36 35 
SE 8 8 9 8 8 9 8 8 8 8 
SE 33 31 32 34 35 34 36 34 32 31 
SE 2 2 2 2 2 2 2 2 2 2 
SE 8 8 8 8 9 8 9 8 8 8 
SE 3 3 3 3 3 3 3 3 3 3 
SE 6 6 6 6 6 6 6 6 6 6 
SE 6 6 6 6 6 6 6 6 6 6 
SE 2 2 2 2 2 2 2 2 2 2 
SE 3 3 3 3 3 3 3 3 3 3 
SE 2 2 2 2 2 2 2 2 2 2 
SE 2 2 2 2 2 2 2 2 2 2 
SE 30 33 33 32 33 31 31 33 30 30 
SE 2 2 2 2 2 2 2 2 2 2 
SE 7 7 7 7 7 7 7 7 7 7 
SE 2 2 2 2 2 2 2 2 2 2 
SE 7 7 7 7 7 7 7 7 7 7 
SE 7 7 7 7 7 7 7 7 7 7 
SE 10 10 9 9 9 10 9 9 10 9 
SE 2 2 2 2 2 2 2 2 2 2 
SE 6 6 6 6 6 6 6 6 6 6 
SE 2 2 2 2 2 2 2 2 2 2 
SE 6 6 6 6 6 6 6 6 6 6 
SE 6 6 6 6 6 6 6 6 6 6 
SE 2 2 2 2 2 2 2 2 2 2 
SE 8 8 8 9 8 8 8 9 9 8 
SE 2 2 2 2 2 2 2 2 2 2 
SE 9 8 8 9 9 8 8 9 9 9 
SE 9 10 9 9 9 9 10 9 9 10 
SE 7 7 7 7 7 7 7 7 7 7 
SE 8 9 8 8 9 9 8 9 8 9 
SE 2 2 2 2 2 2 2 2 2 2 
SE 6 6 6 6 6 6 6 6 6 6 
SE 2 2 2 2 2 2 2 2 2 2 
SE 6 6 6 6 6 6 6 6 6 6 
SE 6 6 6 6 6 6 6 6 6 6 
SE 8 8 8 8 8 8 9 8 8 8 
SE 2 2 2 2 2 2 2 2 2 2 
SE 7 7 7 7 7 7 7 7 7 7 
SE 7 7 7 7 7 7 7 7 7 7 
SE 9 8 9 9 8 8 9 8 9 9 
SE 2 2 2 2 2 2 2 2 2 2 
SE 7 7 7 7 7 7 7 7 7 7 
SE 7 7 7 7 7 7 7 7 7 7 
SE 2 2 2 2 2 2 2 2 2 2 
SE 8 8 8 9 8 8 8 8 8 9 
SE 2 2 2 2 2 2 2 2 2 2 
SE 8 9 8 9 8 9 9 8 9 9 
SE 7 7 7 7 7 7 7 7 7 7 
SE 2 2 2 2 2 2 2 2 2 2 
SE 8 9 8 9 8 9 8 8 8 8 
SE 2 2 2 2 2 2 2 2 2 2 
SE 9 8 9 8 8 8 8 8 9 8 
SE 8 8 8 9 9 8 8 8 9 9 
SE 2 2 2 2 2 2 2 2 2 2 
SE 22 21 23 21 20 20 23 20 23 20 
SE 2 2 2 2 2 2 2 2 2 2 
SE 20 22 22 23 20 23 20 20 20 23 
SE 2 2 2 2 2 2 2 2 2 2 
SE 20 22 21 20 20 23 23 23 23 23 
SE 2 2 2 2 2 2 2 2 2 2 
SE 39 36 35 38 34 39 35 34 36 33 
SE 8 8 8 8 9 8 9 9 8 9 
SE 2 2 2 2 2 2 2 2 2 2 
SE 6 6 6 6 6 6 6 6 6 6 
SE 2 2 2 2 2 2 2 2 2 2 
SE 6 6 6 6 6 6 6 6 6 6 
SE 5 5 5 5 5 5 5 5 5 5 
SE 6 6 6 6 6 6 6 6 6 6 
SE 2 2 2 2 2 2 2 2 2 2 
SE 7 7 7 7 7 7 7 7 7 7 
SE 2 2 2 2 2 2 2 2 2 2 
SE 6 6 6 6 6 6 6 6 6 6 
SE 2 2 2 2 2 2 2 2 2 2 
SE 7 7 7 7 7 7 7 7 7 7 
SE 2 2 2 2 2 2 2 2 2 2 
SE 6 6 6 6 6 6 6 6 6 6 
SE 5 5 5 5 5 5 5 5 5 5 
SE 7 7 7 7 7 7 7 7 7 7 
SE 6 6 6 6 6 6 6 6 6 6 
SE 18 17 16 18 18 17 18 18 17 16 
SE 2 2 2 2 2 2 2 2 2 2 
SE 7 7 7 7 7 7 7 7 7 7 
SE 2 2 2 2 2 2 2 2 2 2 
SE 8 9 8 9 8 8 9 8 8 8 
SE 2 2 2 2 2 2 2 2 2 2 
SE 7 7 7 7 7 7 7 7 7 7 
SE 2 2 2 2 2 2 2 2 2 2 
SE 7 7 7 7 7 7 7 7 7 7 
SE 5 5 5 5 5 5 5 5 5 5 
SE 8 8 8 8 9 8 8 8 9 8 
SE 2 2 2 2 2 2 2 2 2 2 
SE 8 8 8 9 8 8 8 9 8 8 
SE 2 2 2 2 2 2 2 2 2 2 
SE 8 8 9 8 8 8 8 9 8 8 
SE 9 8 8 9 9 8 8 8 8 8 
SE 16 17 17 18 18 16 17 16 18 18 
SE 5 5 5 5 5 5 5 5 5 5 
SE 2 2 2 2 2 2 2 2 2 2 
SE 7 7 7 7 7 7 7 7 7 7 
SE 2 2 2 2 2 2 2 2 2 2 
SE 7 7 7 7 7 7 7 7 7 7 
SE 7 7 7 7 7 7 7 7 7 7 
SE 2 2 2 2 2 2 2 2 2 2 
SE 6 6 6 6 6 6 6 6 6 6 
SE 2 2 2 2 2 2 2 2 2 2 
SE 6 6 6 6 6 6 6 6 6 6 
SE 5 5 5 5 5 5 5 5 5 5 
SE 6 6 6 6 6 6 6 6 6 6 
SE 2 2 2 2 2 2 2 2 2 2 
SE 2 2 2 2 2 2 2 2 2 2 
SE 1223 1263 1294 1116 1226 1206 1271 1157 1300 1240 
SE 1258 1171 1126 1165 1204 1206 1279 1150 1274 1122 
SE 1257 1272 1127 1190 1203 1134 1252 1278 1245 1262 
SE 1194 1176 1182 1204 1178 1237 1262 1246 1220 1108 
SE 1109 1249 1256 1173 1112 1253 1123 1274 1235 1134 
SE 1292 1154 1125 1252 1247 1144 1275 1101 1252 1249 
SE 1189 1257 1159 1223 1149 1107 1216 1275 1265 1216 
SE 1178 1223 1191 1165 1143 1270 1171 1253 1203 1275 
SE 1105 1199 1131 1259 1249 1235 1103 1132 1193 1238 
SE 1194 1106 1288 1215 1227 1162 1171 1168 1129 1279 
SE 1269 1260 1292 1190 1126 1109 1229 1183 1211 1145 
SE 1294 1186 1281 1209 1146 1270 1191 1273 1140 1153 
SE 1134 1281 1215 1163 1183 1136 1277 1108 1192 1290 
SE 1126 1128 1285 1236 1108 1161 1121 1223 1160 1215 
SE 1272 1160 1211 1240 1225 1246 1211 1300 1246 1223 
SE 1166 1248 1239 1178 1127 1231 1219 1254 1291 1160 
SE 1278 1176 1114 1253 1273 1242 1218 1224 1140 1270 
SE 1212 1120 1129 1185 1216 1214 1105 1168 1157 1124 
SE 1249 1188 1184 1127 1297 1154 1133 1228 1229 1144 
SE 1264 1223 1220 1299 1137 1100 1236 1251 1262 1161 
SE 1285 1220 1255 1249 1205 1246 1181 1233 1121 1216 
SE 1191 1141 1161 1287 1175 1216 1278 1149 1190 1161 
SE 1163 1276 1107 1267 1216 1110 1192 1149 1237 1234 
SE 1272 1129 1142 1219 1172 1119 1239 1108 1300 1298 
SE 1295 1205 1240 1203 1184 1207 1219 1242 1129 1113 
SE 1225 1258 1110 1103 1271 1294 1189 1145 1147 1269 
SE 1256 1229 1100 1216 1269 1179 1265 1250 1211 1176 
SE 1205 1134 1217 1235 1106 1123 1159 1126 1120 1244 
SE 1266 1195 1150 1299 1120 1266 1253 1192 1170 1162 
SE 1112 1264 1111 1153 1202 1128 1161 1101 1244 1152 
SE 1254 1134 1143 1219 1239 1103 1214 1263 1148 1184 
SE 1188 1107 1143 1114 1196 1121 1173 1249 1120 1101 
SE 1221 1135 1137 1218 1106 1184 1139 1151 1218 1125 
SE 1210 1105 1170 1260 1292 1137 1165 1240 1243 1146 
END

SECTION StochasticTerminals
ST 1 0 0 0 0 0 0 0 0 0 0 
ST 2 0 0 0 0 0 0 0 0 1 0 
ST 3 0 0 0 0 0 0 0 0 0 0 
ST 4 0 0 0 0 0 0 0 1 0 0 
ST 5 0 0 0 0 0 0 0 0 0 0 
ST 6 0 0 0 0 0 0 0 0 0 0 
ST 7 0 0 0 0 0 0 0 0 0 0 
ST 8 1 0 0 0 0 0 0 0 0 0 
ST 9 0 0 0 0 0 0 0 0 0 0 
ST 10 0 0 0 0 0 0 0 0 0 1 
ST 11 1 0 0 0 0 0 0 0 0 0 
ST 12 1 0 0 0 0 0 1 0 0 0 
ST 13 0 0 0 0 0 0 0 0 0 0 
ST 14 0 0 0 0 0 0 0 0 0 0 
ST 15 0 0 0 1 0 0 0 0 0 0 
ST 16 0 0 0 0 0 0 0 0 0 0 
ST 17 0 0 0 0 0 0 0 0 0 0 
ST 18 0 0 0 0 0 0 0 0 0 0 
ST 19 0 0 1 0 0 0 1 0 0 0 
ST 20 0 0 0 0 0 0 0 0 0 0 
ST 21 1 0 0 0 0 0 0 0 0 0 
ST 22 1 0 0 0 0 0 0 0 0 0 
ST 23 0 1 0 0 0 0 0 0 0 0 
ST 24 0 0 0 0 0 0 0 0 0 0 
ST 25 0 0 0 0 0 0 0 0 0 0 
ST 26 0 0 0 0 0 0 0 0 0 0 
ST 27 0 0 0 0 0 0 0 0 0 0 
ST 28 0 0 0 0 0 0 0 0 0 0 
ST 29 1 0 1 0 0 0 0 0 0 0 
ST 30 0 0 0 0 0 0 0 0 0 0 
ST 31 0 0 0 0 0 0 0 0 0 0 
ST 32 0 0 0 0 0 0 0 0 0 0 
ST 33 0 0 0 0 0 0 0 0 0 0 
ST 34 0 0 0 0 0 0 1 0 0 0 
ST 35 0 0 0 0 0 0 0 0 0 0 
ST 36 0 0 0 0 0 0 0 0 0 0 
ST 37 0 0 0 0 0 1 0 0 0 0 
ST 38 0 0 0 0 1 0 0 0 0 0 
ST 39 0 0 0 0 0 0 0 0 0 0 
ST 40 0 0 0 0 0 1 0 0 0 1 
ST 41 0 0 0 1 1 0 0 0 0 0 
ST 42 0 0 0 0 0 0 0 0 0 0 
ST 43 0 0 0 0 0 0 0 0 0 0 
ST 44 0 0 0 0 0 0 0 0 0 0 
ST 45 0 0 1 0 0 0 0 0 0 0 
ST 46 0 0 1 0 0 0 0 1 0 1 
ST 47 0 0 0 0 0 0 0 0 0 0 
ST 48 0 0 0 0 0 0 0 0 0 0 
ST 49 0 0 1 1 0 0 0 0 0 0 
ST 50 0 0 0 0 0 0 0 0 0 0 
ST 51 0 0 0 0 0 0 0 0 0 0 
ST 52 0 0 0 0 0 0 0 0 0 0 
ST 53 0 0 0 0 0 0 0 1 0 0 
ST 54 0 1 0 0 0 0 0 0 0 0 
ST 55 0 0 0 1 0 0 0 0 0 0 
ST 56 0 0 1 1 0 0 0 0 0 0 
ST 57 0 0 0 0 0 0 0 1 0 0 
ST 58 0 0 0 0 0 0 0 0 0 0 
ST 59 0 0 0 0 0 0 0 1 0 0 
ST 60 0 0 0 1 0 0 0 0 0 0 
ST 61 0 0 0 0 0 0 0 0 0 0 
ST 62 0 0 0 0 1 0 0 0 0 0 
ST 63 0 0 0 0 0 0 0 0 0 0 
ST 64 0 0 0 1 0 0 0 0 0 0 
ST 65 0 0 0 0 0 0 0 0 0 0 
ST 66 0 0 0 0 0 0 0 0 0 0 
ST 67 0 0 0 0 0 0 0 0 0 0 
ST 68 0 0 0 0 0 0 0 1 0 0 
ST 69 0 0 0 0 0 0 0 0 0 0 
ST 70 0 0 0 0 0 0 0 0 0 0 
ST 71 0 0 0 0 0 0 0 0 0 0 
ST 72 0 0 0 0 0 0 0 0 0 0 
ST 73 0 0 0 0 0 0 0 0 0 0 
ST 74 0 0 0 0 0 1 0 0 0 0 
ST 75 0 0 0 0 0 1 0 1 0 0 
ST 76 0 1 0 0 0 0 0 0 0 0 
ST 77 1 0 0 0 0 0 0 0 0 0 
ST 78 0 0 0 0 0 0 0 0 0 0 
ST 79 0 0 0 0 0 0 1 0 0 0 
ST 80 0 0 0 0 0 0 0 0 0 0 
ST 81 0 0 0 0 0 0 1 0 0 0 
ST 82 0 0 0 0 0 1 0 0 0 0 
ST 83 0 0 0 0 0 0 0 0 0 0 
ST 84 0 0 0 0 0 0 0 0 0 0 
ST 85 0 0 0 0 0 0 0 0 0 0 
ST 86 0 0 0 0 1 0 0 0 0 0 
ST 87 0 0 0 0 0 0 0 0 0 0 
ST 88 0 0 0 1 0 0 0 0 0 0 
ST 89 0 0 0 0 0 0 0 0 0 0 
ST 90 0 0 0 0 0 0 0 0 0 0 
ST 91 0 0 0 0 0 0 0 0 0 0 
ST 92 0 0 0 0 0 0 0 0 0 0 
ST 93 0 0 0 0 0 0 0 0 0 0 
ST 94 0 0 0 0 0 0 0 0 0 0 
ST 95 0 0 0 0 0 0 0 0 0 0 
ST 96 0 0 0 0 0 0 0 0 0 0 
ST 97 0 0 0 0 0 0 0 0 0 0 
ST 98 0 0 0 0 1 0 1 0 0 0 
ST 99 0 0 0 0 0 0 0 0 0 0 
ST 100 0 0 0 0 0 0 0 0 1 0 
ST 101 0 0 0 0 0 0 0 0 0 0 
ST 102 0 0 1 0 0 0 0 0 0 0 
ST 103 0 0 0 0 0 0 0 0 0 1 
ST 104 0 0 0 0 0 0 0 0 0 0 
ST 105 0 0 0 0 0 0 0 0 0 0 
ST 106 0 0 0 0 0 0 0 0 0 0 
ST 107 0 0 0 0 0 0 0 0 0 0 
ST 108 0 0 0 0 0 0 0 0 0 0 
ST 109 0 0 0 0 0 0 0 1 0 0 
ST 110 0 0 0 0 0 0 0 0 0 0 
ST 111 0 0 0 0 0 0 0 0 0 0 
ST 112 1 0 0 0 0 0 0 0 0 1 
ST 113 0 0 0 0 0 0 0 0 0 0 
ST 114 0 0 0 1 0 0 0 0 1 0 
ST 115 0 0 0 0 0 0 0 0 0 1 
ST 116 0 0 0 0 0 0 0 0 0 0 
ST 117 0 0 0 0 0 1 0 0 0 0 
ST 118 0 1 0 0 1 0 0 0 0 0 
ST 119 0 1 0 0 0 0 1 0 1 1 
ST 120 1 0 0 0 0 0 0 0 0 0 
ST 121 0 0 1 0 0 0 0 0 0 0 
ST 122 0 0 1 0 1 0 0 1 0 0 
ST 123 1 0 0 0 0 0 1 0 0 0 
ST 124 0 0 0 0 1 1 1 0 0 1 
ST 125 0 0 1 0 0 1 0 0 0 0 
ST 126 1 1 1 1 1 1 1 1 1 1 
ST 127 0 0 0 0 1 0 0 1 0 0 
ST 128 0 1 0 0 0 0 1 1 1 0 
END


SECTION Coordinates
DD 1 14129 14411
DD 2 14142 14411
DD 3 14129 14410
DD 4 14141 14410
DD 5 14129 14409
DD 6 14141 14409
DD 7 14004 14404
DD 8 14015 14404
DD 9 14010 14403
DD 10 14010 14405
DD 11 13986 14426
DD 12 13997 14426
DD 13 13991 14425
DD 14 13991 14427
DD 15 13968 14402
DD 16 13979 14402
DD 17 13974 14401
DD 18 13974 14403
DD 19 13950 14402
DD 20 13961 14402
DD 21 13955 14401
DD 22 13955 14403
DD 23 13932 14412
DD 24 13943 14412
DD 25 13938 14411
DD 26 13938 14413
DD 27 13893 14395
DD 28 13908 14395
DD 29 13908 14397
DD 30 13902 14394
DD 31 13902 14398
DD 32 13895 14365
DD 33 13907 14366
DD 34 14147 14459
DD 35 13895 14366
DD 36 13902 14366
DD 37 13895 14394
DD 38 13895 14395
DD 39 13902 14395
DD 40 13902 14397
DD 41 13907 14394
DD 42 13907 14395
DD 43 13907 14397
DD 44 13907 14398
DD 45 13908 14398
DD 46 13932 14401
DD 47 13932 14402
DD 48 13932 14403
DD 49 13938 14401
DD 50 13938 14402
DD 51 13938 14403
DD 52 13932 14411
DD 53 13943 14401
DD 54 13943 14402
DD 55 13943 14403
DD 56 13938 14412
DD 57 13950 14401
DD 58 13950 14403
DD 59 13943 14411
DD 60 13955 14402
DD 61 13950 14409
DD 62 13950 14410
DD 63 13950 14411
DD 64 13961 14401
DD 65 13955 14409
DD 66 13961 14403
DD 67 13955 14410
DD 68 13955 14411
DD 69 13968 14401
DD 70 13961 14409
DD 71 13961 14410
DD 72 13968 14403
DD 73 13961 14411
DD 74 13961 14412
DD 75 13961 14413
DD 76 13974 14402
DD 77 13968 14409
DD 78 13968 14410
DD 79 13968 14411
DD 80 13968 14412
DD 81 13968 14413
DD 82 13979 14403
DD 83 13986 14403
DD 84 13986 14404
DD 85 13986 14405
DD 86 13991 14403
DD 87 13986 14409
DD 88 13991 14404
DD 89 13986 14410
DD 90 13991 14405
DD 91 13986 14411
DD 92 13991 14409
DD 93 13997 14403
DD 94 13991 14410
DD 95 13997 14404
DD 96 13991 14411
DD 97 13997 14405
DD 98 13997 14409
DD 99 13997 14410
DD 100 14004 14403
DD 101 13997 14411
DD 102 14004 14405
DD 103 13986 14425
DD 104 14004 14409
DD 105 14004 14410
DD 106 14010 14404
DD 107 14004 14411
DD 108 13991 14426
DD 109 14010 14409
DD 110 14010 14410
DD 111 14015 14405
DD 112 14010 14411
DD 113 13997 14425
DD 114 14015 14409
DD 115 14015 14410
DD 116 14015 14411
DD 117 14141 14411
DD 118 14129 14411
DD 119 14142 14411
DD 120 14129 14410
DD 121 14141 14410
DD 122 14129 14409
DD 123 14141 14409
DD 124 14004 14404
DD 125 14015 14404
DD 126 14010 14403
DD 127 14010 14405
DD 128 13986 14426
END

EOF
